15
-1 70 88 13 98 71 70 84 85 55 80 100 23 24 2
78 -1 69 33 92 28 98 60 36 63 37 10 78 25 40
92 92 -1 45 72 39 30 28 10 25 65 17 94 86 3
5 51 47 -1 53 73 50 77 56 62 24 61 15 67 31
59 99 44 88 -1 70 66 97 94 13 100 12 33 50 53
42 70 38 41 51 -1 89 95 11 15 94 2 51 15 45
7 44 96 24 61 17 -1 50 17 42 91 96 81 25 54
84 97 90 35 39 46 13 -1 11 14 88 89 21 38 6
61 66 58 61 23 62 11 15 -1 52 39 13 12 51 3
72 4 33 96 26 51 13 7 100 -1 44 15 53 28 96
96 77 39 73 91 61 30 19 66 25 -1 5 39 89 64
91 21 63 32 24 28 71 80 50 23 43 -1 73 98 31
83 60 24 76 74 2 27 17 12 4 2 63 -1 35 46
76 97 48 67 43 50 100 54 17 68 76 88 62 -1 81
10 43 7 100 72 11 43 44 21 54 14 76 95 93 -1